PARAMETER_FILE = even/even_complete_graph_new/par/random86.par
PROBLEM_FILE = even/even_complete_graph_new/mat/random86.tsp
Successes/Runs = 0/10
Cost.min = 727, Cost.avg = 727.00, Cost.max = 727
Gap.min = 0.0000%, Gap.avg = 0.0000%, Gap.max = 0.0000%
Trials.min = 1000, Trials.avg = 1000.0, Trials.max = 1000
Time.min = 1.00 sec., Time.avg = 1.07 sec., Time.max = 1.16 sec.
Time.total = 10.77 sec.
